9
0, 492, 518, 442, 236, 250, 591, 109, 186
492, 0, 271, 143, 528, 319, 529, 481, 305
518, 271, 0, 394, 425, 268, 264, 450, 362
442, 143, 394, 0, 543, 346, 635, 465, 275
236, 528, 425, 543, 0, 209, 397, 128, 279
250, 319, 268, 346, 209, 0, 374, 186, 131
591, 529, 264, 635, 397, 374, 0, 490, 504
109, 481, 450, 465, 128, 186, 490, 0, 189
186, 305, 362, 275, 279, 131, 504, 189, 0
